0 16906 
1 16770 
2 16744 
3 15960 
4 15748 
5 15670 
6 15488 
7 15386 
8 15360 
9 15236 
10 15166 
11 14978 
12 14814 
13 14794 
14 14614 
15 14538 
16 14514 
17 14460 
18 14448 
19 14062 
20 13902 
21 13888 
22 13874 
23 13848 
24 13840 
25 13722 
26 13642 
27 13518 
28 13132 
29 13052 
30 13038 
31 12994 
32 12882 
33 12876 
34 12732 
35 12688 
36 12560 
37 12522 
38 12420 
39 12284 
40 12242 
41 12016 
42 11870 
43 11802 
44 11712 
45 11698 
46 11696 
47 11682 
48 11570 
49 11526 
50 11428 
51 11372 
52 11254 
53 11176 
54 11088 
55 11000 
56 10990 
57 10706 
58 10642 
59 10540 
60 10444 
61 10362 
62 10306 
63 10180 
64 10138 
65 10102 
66 10066 
67 10054 
68 10032 
69 10022 
70 9972 
71 9888 
72 9828 
73 9758 
74 9604 
75 9522 
76 9494 
77 9286 
78 9244 
79 9156 
80 9068 
81 9028 
82 9014 
83 9012 
84 8964 
85 8962 
86 8954 
87 8826 
88 8822 
89 8772 
90 8710 
91 8618 
92 8528 
93 8482 
94 8448 
95 8388 
96 8340 
97 8296 
98 8284 
99 8240 
100 8238 
101 8148 
102 8028 
103 8008 
104 7948 
105 7892 
106 7840 
107 7840 
108 7802 
109 7764 
110 7670 
111 7654 
112 7630 
113 7602 
114 7602 
115 7542 
116 7418 
117 7410 
118 7406 
119 7368 
120 7316 
121 7138 
122 7128 
123 7120 
124 7090 
125 7090 
126 7076 
127 7024 
128 6996 
129 6996 
130 6974 
131 6968 
132 6882 
133 6882 
134 6862 
135 6838 
136 6838 
137 6814 
138 6814 
139 6802 
140 6802 
141 6786 
142 6786 
143 6786 
144 6786 
145 6786 
146 6786 
147 6786 
148 6786 
149 6786 
150 6786 
151 6786 
152 6786 
153 6786 
154 6786 
155 6786 
156 6786 
157 6786 
158 6786 
159 6786 
160 6786 
161 6786 
162 6786 
163 6786 
164 6786 
165 6786 
166 6786 
167 6786 
168 6786 
169 6786 
170 6786 
171 6786 
172 6786 
173 6786 
174 6786 
175 6786 
176 6786 
177 6786 
178 6786 
179 6786 
180 6786 
181 6786 
182 6786 
183 6786 
184 6786 
185 6786 
186 6786 
187 6786 
188 6786 
189 6786 
190 6786 
191 6786 
192 6786 
193 6786 
194 6786 
195 6786 
196 6786 
197 6786 
198 6786 
199 6786 
200 6786 
201 6786 
202 6786 
203 6786 
204 6786 
205 6786 
206 6786 
207 6786 
208 6786 
209 6786 
210 6786 
211 6786 
212 6786 
213 6786 
214 6786 
215 6786 
216 6786 
217 6786 
218 6786 
219 6786 
220 6786 
221 6786 
222 6786 
223 6786 
224 6786 
225 6786 
226 6786 
227 6786 
228 6786 
229 6786 
230 6786 
231 6786 
232 6786 
233 6786 
234 6786 
235 6786 
236 6786 
237 6786 
238 6786 
239 6786 
240 6786 
241 6786 
242 6786 
243 6786 
244 6786 
245 6786 
246 6786 
247 6786 
248 6786 
249 6786 
250 6786 
251 6786 
252 6786 
253 6786 
254 6786 
255 6786 
256 6786 
257 6786 
258 6786 
259 6786 
260 6786 
261 6786 
262 6786 
263 6786 
264 6786 
265 6786 
266 6786 
267 6786 
268 6786 
269 6786 
270 6786 
271 6786 
272 6786 
273 6786 
274 6786 
275 6786 
276 6786 
277 6786 
278 6786 
279 6786 
280 6786 
281 6786 
282 6786 
283 6786 
284 6786 
285 6786 
286 6786 
287 6786 
288 6786 
289 6786 
290 6786 
291 6786 
292 6786 
293 6786 
294 6786 
295 6786 
296 6786 
297 6786 
298 6786 
299 6786 
300 6786 
301 6786 
302 6786 
303 6786 
304 6786 
305 6786 
306 6786 
307 6786 
308 6786 
309 6786 
310 6786 
311 6786 
312 6786 
313 6786 
314 6786 
315 6786 
316 6786 
317 6786 
318 6786 
319 6786 
320 6786 
321 6786 
322 6786 
323 6786 
324 6786 
325 6786 
326 6786 
327 6786 
328 6786 
329 6786 
330 6786 
331 6786 
332 6786 
333 6786 
334 6786 
335 6786 
336 6786 
337 6786 
338 6786 
339 6786 
340 6786 
341 6786 
342 6786 
343 6786 
344 6786 
345 6786 
346 6786 
347 6786 
348 6786 
349 6786 
350 6786 
351 6786 
352 6786 
353 6786 
354 6786 
355 6786 
356 6786 
357 6786 
358 6786 
359 6786 
360 6786 
361 6786 
362 6786 
363 6786 
364 6786 
365 6786 
366 6786 
367 6786 
368 6786 
369 6786 
370 6786 
371 6786 
372 6786 
373 6786 
374 6786 
375 6786 
376 6786 
377 6786 
378 6786 
379 6786 
380 6786 
381 6786 
382 6786 
383 6786 
384 6786 
385 6786 
386 6786 
387 6786 
388 6786 
389 6786 
390 6786 
391 6786 
392 6786 
393 6786 
394 6786 
395 6786 
396 6786 
397 6786 
398 6786 
399 6786 
400 6786 
401 6786 
402 6786 
403 6786 
404 6786 
405 6786 
406 6786 
407 6786 
408 6786 
409 6786 
410 6786 
411 6786 
412 6786 
413 6786 
414 6786 
415 6786 
416 6786 
417 6786 
418 6786 
419 6786 
420 6786 
421 6786 
422 6786 
423 6786 
424 6786 
425 6786 
426 6786 
427 6786 
428 6786 
429 6786 
430 6786 
431 6786 
432 6786 
433 6786 
434 6786 
435 6786 
436 6786 
437 6786 
438 6786 
439 6786 
440 6786 
441 6786 
442 6786 
443 6786 
444 6786 
445 6786 
446 6786 
447 6786 
448 6786 
449 6786 
450 6786 
451 6786 
452 6786 
453 6786 
454 6786 
455 6786 
456 6786 
457 6786 
458 6786 
459 6786 
460 6786 
461 6786 
462 6786 
463 6786 
464 6786 
465 6786 
466 6786 
467 6786 
468 6786 
469 6786 
470 6786 
471 6786 
472 6786 
473 6786 
474 6786 
475 6786 
476 6786 
477 6786 
478 6786 
479 6786 
480 6786 
481 6786 
482 6786 
483 6786 
484 6786 
485 6786 
486 6786 
487 6786 
488 6786 
489 6786 
490 6786 
491 6786 
492 6786 
493 6786 
494 6786 
495 6786 
496 6786 
497 6786 
498 6786 
499 6786 
500 6786 
501 6786 
502 6786 
503 6786 
504 6786 
505 6786 
506 6786 
507 6786 
508 6786 
509 6786 
510 6786 
511 6786 
512 6786 
513 6786 
514 6786 
515 6786 
516 6786 
517 6786 
518 6786 
519 6786 
520 6786 
521 6786 
522 6786 
523 6786 
524 6786 
525 6786 
526 6786 
527 6786 
528 6786 
529 6786 
530 6786 
531 6786 
532 6786 
533 6786 
534 6786 
535 6786 
536 6786 
537 6786 
538 6786 
539 6786 
540 6786 
541 6786 
542 6786 
543 6786 
544 6786 
545 6786 
546 6786 
547 6786 
548 6786 
549 6786 
550 6786 
551 6786 
552 6786 
553 6786 
554 6786 
555 6786 
556 6786 
557 6786 
558 6786 
559 6786 
560 6786 
561 6786 
562 6786 
563 6786 
564 6786 
565 6786 
566 6786 
567 6786 
568 6786 
569 6786 
570 6786 
571 6786 
572 6786 
573 6786 
574 6786 
575 6786 
576 6786 
577 6786 
578 6786 
579 6786 
580 6786 
581 6786 
582 6786 
583 6786 
584 6786 
585 6786 
586 6786 
587 6786 
588 6786 
589 6786 
590 6786 
591 6786 
592 6786 
593 6786 
594 6786 
595 6786 
596 6786 
597 6786 
598 6786 
599 6786 
600 6786 
601 6786 
602 6786 
603 6786 
604 6786 
605 6786 
606 6786 
607 6786 
608 6786 
609 6786 
610 6786 
611 6786 
612 6786 
613 6786 
614 6786 
615 6786 
616 6786 
617 6786 
618 6786 
619 6786 
620 6786 
621 6786 
622 6786 
623 6786 
624 6786 
625 6786 
626 6786 
627 6786 
628 6786 
629 6786 
630 6786 
631 6786 
632 6786 
633 6786 
634 6786 
635 6786 
636 6786 
637 6786 
638 6786 
639 6786 
640 6786 
641 6786 
642 6786 
643 6786 
644 6786 
645 6786 
646 6786 
647 6786 
648 6786 
649 6786 
650 6786 
651 6786 
652 6786 
653 6786 
654 6786 
655 6786 
656 6786 
657 6786 
658 6786 
659 6786 
660 6786 
661 6786 
662 6786 
663 6786 
664 6786 
665 6786 
666 6786 
667 6786 
668 6786 
669 6786 
670 6786 
671 6786 
672 6786 
673 6786 
674 6786 
675 6786 
676 6786 
677 6786 
678 6786 
679 6786 
680 6786 
681 6786 
682 6786 
683 6786 
684 6786 
685 6786 
686 6786 
687 6786 
688 6786 
689 6786 
690 6786 
691 6786 
692 6786 
693 6786 
694 6786 
695 6786 
696 6786 
697 6786 
698 6786 
699 6786 
700 6786 
701 6786 
702 6786 
703 6786 
704 6786 
705 6786 
706 6786 
707 6786 
708 6786 
709 6786 
710 6786 
711 6786 
712 6786 
713 6786 
714 6786 
715 6786 
716 6786 
717 6786 
718 6786 
719 6786 
720 6786 
721 6786 
722 6786 
723 6786 
724 6786 
725 6786 
726 6786 
727 6786 
728 6786 
729 6786 
730 6786 
731 6786 
732 6786 
733 6786 
734 6786 
735 6786 
736 6786 
737 6786 
738 6786 
739 6786 
740 6786 
741 6786 
742 6786 
743 6786 
744 6786 
745 6786 
746 6786 
747 6786 
748 6786 
749 6786 
750 6786 
751 6786 
752 6786 
753 6786 
754 6786 
755 6786 
756 6786 
757 6786 
758 6786 
759 6786 
760 6786 
761 6786 
762 6786 
763 6786 
764 6786 
765 6786 
766 6786 
767 6786 
768 6786 
769 6786 
770 6786 
771 6786 
772 6786 
773 6786 
774 6786 
775 6786 
776 6786 
777 6786 
778 6786 
779 6786 
780 6786 
781 6786 
782 6786 
783 6786 
784 6786 
785 6786 
786 6786 
787 6786 
788 6786 
789 6786 
790 6786 
791 6786 
792 6786 
793 6786 
794 6786 
795 6786 
796 6786 
797 6786 
798 6786 
799 6786 
800 6786 
801 6786 
802 6786 
803 6786 
804 6786 
805 6786 
806 6786 
807 6786 
808 6786 
809 6786 
810 6786 
811 6786 
812 6786 
813 6786 
814 6786 
815 6786 
816 6786 
817 6786 
818 6786 
819 6786 
820 6786 
821 6786 
822 6786 
823 6786 
824 6786 
825 6786 
826 6786 
827 6786 
828 6786 
829 6786 
830 6786 
831 6786 
832 6786 
833 6786 
834 6786 
835 6786 
836 6786 
837 6786 
838 6786 
839 6786 
840 6786 
841 6786 
842 6786 
843 6786 
844 6786 
845 6786 
846 6786 
847 6786 
848 6786 
849 6786 
850 6786 
851 6786 
852 6786 
853 6786 
854 6786 
855 6786 
856 6786 
857 6786 
858 6786 
859 6786 
860 6786 
861 6786 
862 6786 
863 6786 
864 6786 
865 6786 
866 6786 
867 6786 
868 6786 
869 6786 
870 6786 
871 6786 
872 6786 
873 6786 
874 6786 
875 6786 
876 6786 
877 6786 
878 6786 
879 6786 
880 6786 
881 6786 
882 6786 
883 6786 
884 6786 
885 6786 
886 6786 
887 6786 
888 6786 
889 6786 
890 6786 
891 6786 
892 6786 
893 6786 
894 6786 
895 6786 
896 6786 
897 6786 
898 6786 
899 6786 
900 6786 
901 6786 
902 6786 
903 6786 
904 6786 
905 6786 
906 6786 
907 6786 
908 6786 
909 6786 
910 6786 
911 6786 
912 6786 
913 6786 
914 6786 
915 6786 
916 6786 
917 6786 
918 6786 
919 6786 
920 6786 
921 6786 
922 6786 
923 6786 
924 6786 
925 6786 
926 6786 
927 6786 
928 6786 
929 6786 
930 6786 
931 6786 
932 6786 
933 6786 
934 6786 
935 6786 
936 6786 
937 6786 
938 6786 
939 6786 
940 6786 
941 6786 
942 6786 
943 6786 
944 6786 
945 6786 
946 6786 
947 6786 
948 6786 
949 6786 
950 6786 
951 6786 
952 6786 
953 6786 
954 6786 
955 6786 
956 6786 
957 6786 
958 6786 
959 6786 
960 6786 
961 6786 
962 6786 
963 6786 
964 6786 
965 6786 
966 6786 
967 6786 
968 6786 
969 6786 
970 6786 
971 6786 
972 6786 
973 6786 
974 6786 
975 6786 
976 6786 
977 6786 
978 6786 
979 6786 
980 6786 
981 6786 
982 6786 
983 6786 
984 6786 
985 6786 
986 6786 
987 6786 
988 6786 
989 6786 
990 6786 
991 6786 
992 6786 
993 6786 
994 6786 
995 6786 
996 6786 
997 6786 
998 6786 
999 6786 
1000 6786 
1001 6786 
1002 6786 
1003 6786 
1004 6786 
1005 6786 
1006 6786 
1007 6786 
1008 6786 
1009 6786 
1010 6786 
1011 6786 
1012 6786 
1013 6786 
1014 6786 
1015 6786 
1016 6786 
1017 6786 
1018 6786 
1019 6786 
1020 6786 
1021 6786 
1022 6786 
1023 6786 
1024 6786 
1025 6786 
1026 6786 
1027 6786 
1028 6786 
1029 6786 
1030 6786 
1031 6786 
1032 6786 
1033 6786 
1034 6786 
1035 6786 
1036 6786 
1037 6786 
1038 6786 
1039 6786 
1040 6786 
1041 6786 
1042 6786 
1043 6786 
1044 6786 
1045 6786 
1046 6786 
1047 6786 
1048 6786 
1049 6786 
1050 6786 
1051 6786 
1052 6786 
1053 6786 
1054 6786 
1055 6786 
1056 6786 
1057 6786 
1058 6786 
1059 6786 
1060 6786 
1061 6786 
1062 6786 
1063 6786 
1064 6786 
1065 6786 
1066 6786 
1067 6786 
1068 6786 
1069 6786 
1070 6786 
1071 6786 
1072 6786 
1073 6786 
1074 6786 
1075 6786 
1076 6786 
1077 6786 
1078 6786 
1079 6786 
1080 6786 
1081 6786 
1082 6786 
1083 6786 
1084 6786 
1085 6786 
1086 6786 
1087 6786 
1088 6786 
1089 6786 
1090 6786 
1091 6786 
1092 6786 
1093 6786 
1094 6786 
1095 6786 
1096 6786 
1097 6786 
1098 6786 
1099 6786 
1100 6786 
1101 6786 
1102 6786 
1103 6786 
1104 6786 
1105 6786 
1106 6786 
1107 6786 
1108 6786 
1109 6786 
1110 6786 
1111 6786 
1112 6786 
1113 6786 
1114 6786 
1115 6786 
1116 6786 
1117 6786 
1118 6786 
1119 6786 
1120 6786 
1121 6786 
1122 6786 
1123 6786 
1124 6786 
1125 6786 
1126 6786 
1127 6786 
1128 6786 
1129 6786 
1130 6786 
1131 6786 
1132 6786 
1133 6786 
1134 6786 
1135 6786 
1136 6786 
1137 6786 
1138 6786 
1139 6786 
1140 6786 
1141 6786 
1142 6786 
1143 6786 
1144 6786 
1145 6786 
1146 6786 
1147 6786 
1148 6786 
1149 6786 
1150 6786 
1151 6786 
1152 6786 
1153 6786 
1154 6786 
1155 6786 
1156 6786 
1157 6786 
1158 6786 
1159 6786 
1160 6786 
1161 6786 
1162 6786 
1163 6786 
1164 6786 
1165 6786 
1166 6786 
1167 6786 
1168 6786 
1169 6786 
1170 6786 
1171 6786 
1172 6786 
1173 6786 
1174 6786 
1175 6786 
1176 6786 
1177 6786 
1178 6786 
1179 6786 
1180 6786 
1181 6786 
1182 6786 
1183 6786 
1184 6786 
1185 6786 
1186 6786 
1187 6786 
1188 6786 
1189 6786 
1190 6786 
1191 6786 
1192 6786 
1193 6786 
1194 6786 
1195 6786 
1196 6786 
1197 6786 
1198 6786 
1199 6786 
1200 6786 
1201 6786 
1202 6786 
1203 6786 
1204 6786 
1205 6786 
1206 6786 
1207 6786 
1208 6786 
1209 6786 
1210 6786 
1211 6786 
1212 6786 
1213 6786 
1214 6786 
1215 6786 
1216 6786 
1217 6786 
1218 6786 
1219 6786 
1220 6786 
1221 6786 
1222 6786 
1223 6786 
1224 6786 
1225 6786 
1226 6786 
1227 6786 
1228 6786 
1229 6786 
1230 6786 
1231 6786 
1232 6786 
1233 6786 
1234 6786 
1235 6786 
1236 6786 
1237 6786 
1238 6786 
1239 6786 
1240 6786 
1241 6786 
1242 6786 
1243 6786 
1244 6786 
1245 6786 
1246 6786 
1247 6786 
1248 6786 
1249 6786 
1250 6786 
1251 6786 
1252 6786 
1253 6786 
1254 6786 
1255 6786 
1256 6786 
1257 6786 
1258 6786 
1259 6786 
1260 6786 
1261 6786 
1262 6786 
1263 6786 
1264 6786 
1265 6786 
1266 6786 
1267 6786 
1268 6786 
1269 6786 
1270 6786 
1271 6786 
1272 6786 
1273 6786 
1274 6786 
1275 6786 
1276 6786 
1277 6786 
1278 6786 
1279 6786 
1280 6786 
1281 6786 
1282 6786 
1283 6786 
1284 6786 
1285 6786 
1286 6786 
1287 6786 
1288 6786 
1289 6786 
1290 6786 
1291 6786 
1292 6786 
1293 6786 
1294 6786 
1295 6786 
1296 6786 
1297 6786 
1298 6786 
1299 6786 
1300 6786 
1301 6786 
1302 6786 
1303 6786 
1304 6786 
1305 6786 
1306 6786 
1307 6786 
1308 6786 
1309 6786 
1310 6786 
1311 6786 
1312 6786 
1313 6786 
1314 6786 
1315 6786 
1316 6786 
1317 6786 
1318 6786 
1319 6786 
1320 6786 
1321 6786 
1322 6786 
1323 6786 
1324 6786 
1325 6786 
1326 6786 
1327 6786 
1328 6786 
1329 6786 
1330 6786 
1331 6786 
1332 6786 
1333 6786 
1334 6786 
1335 6786 
1336 6786 
1337 6786 
1338 6786 
1339 6786 
1340 6786 
1341 6786 
1342 6786 
1343 6786 
1344 6786 
1345 6786 
1346 6786 
1347 6786 
1348 6786 
1349 6786 
1350 6786 
1351 6786 
1352 6786 
1353 6786 
1354 6786 
1355 6786 
1356 6786 
1357 6786 
1358 6786 
1359 6786 
1360 6786 
1361 6786 
1362 6786 
1363 6786 
1364 6786 
1365 6786 
1366 6786 
1367 6786 
1368 6786 
1369 6786 
1370 6786 
1371 6786 
1372 6786 
1373 6786 
1374 6786 
1375 6786 
1376 6786 
1377 6786 
1378 6786 
1379 6786 
1380 6786 
1381 6786 
1382 6786 
1383 6786 
1384 6786 
1385 6786 
1386 6786 
1387 6786 
1388 6786 
1389 6786 
1390 6786 
1391 6786 
1392 6786 
1393 6786 
1394 6786 
1395 6786 
1396 6786 
1397 6786 
1398 6786 
1399 6786 
1400 6786 
1401 6786 
1402 6786 
1403 6786 
1404 6786 
1405 6786 
1406 6786 
1407 6786 
1408 6786 
1409 6786 
1410 6786 
1411 6786 
1412 6786 
1413 6786 
1414 6786 
1415 6786 
1416 6786 
1417 6786 
1418 6786 
1419 6786 
1420 6786 
1421 6786 
1422 6786 
1423 6786 
1424 6786 
1425 6786 
1426 6786 
1427 6786 
1428 6786 
1429 6786 
1430 6786 
1431 6786 
1432 6786 
1433 6786 
1434 6786 
1435 6786 
1436 6786 
1437 6786 
1438 6786 
1439 6786 
1440 6786 
1441 6786 
1442 6786 
1443 6786 
1444 6786 
1445 6786 
1446 6786 
1447 6786 
1448 6786 
1449 6786 
1450 6786 
1451 6786 
1452 6786 
1453 6786 
1454 6786 
1455 6786 
1456 6786 
1457 6786 
1458 6786 
1459 6786 
1460 6786 
1461 6786 
1462 6786 
1463 6786 
1464 6786 
1465 6786 
1466 6786 
1467 6786 
1468 6786 
1469 6786 
1470 6786 
1471 6786 
1472 6786 
1473 6786 
1474 6786 
1475 6786 
1476 6786 
1477 6786 
1478 6786 
1479 6786 
1480 6786 
1481 6786 
1482 6786 
1483 6786 
1484 6786 
1485 6786 
1486 6786 
1487 6786 
1488 6786 
1489 6786 
1490 6786 
1491 6786 
1492 6786 
1493 6786 
1494 6786 
1495 6786 
1496 6786 
1497 6786 
1498 6786 
1499 6786 
1500 6786 
1501 6786 
1502 6786 
1503 6786 
1504 6786 
1505 6786 
1506 6786 
1507 6786 
1508 6786 
1509 6786 
1510 6786 
1511 6786 
1512 6786 
1513 6786 
1514 6786 
1515 6786 
1516 6786 
1517 6786 
1518 6786 
1519 6786 
1520 6786 
1521 6786 
1522 6786 
1523 6786 
1524 6786 
1525 6786 
1526 6786 
1527 6786 
1528 6786 
1529 6786 
1530 6786 
1531 6786 
1532 6786 
1533 6786 
1534 6786 
1535 6786 
1536 6786 
1537 6786 
1538 6786 
1539 6786 
1540 6786 
1541 6786 
1542 6786 
1543 6786 
1544 6786 
1545 6786 
1546 6786 
1547 6786 
1548 6786 
1549 6786 
1550 6786 
1551 6786 
1552 6786 
1553 6786 
1554 6786 
1555 6786 
1556 6786 
1557 6786 
1558 6786 
1559 6786 
1560 6786 
1561 6786 
1562 6786 
1563 6786 
1564 6786 
1565 6786 
1566 6786 
1567 6786 
1568 6786 
1569 6786 
1570 6786 
1571 6786 
1572 6786 
1573 6786 
1574 6786 
1575 6786 
1576 6786 
1577 6786 
1578 6786 
1579 6786 
1580 6786 
1581 6786 
1582 6786 
1583 6786 
1584 6786 
1585 6786 
1586 6786 
1587 6786 
1588 6786 
1589 6786 
1590 6786 
1591 6786 
1592 6786 
1593 6786 
1594 6786 
1595 6786 
1596 6786 
1597 6786 
1598 6786 
1599 6786 
1600 6786 
1601 6786 
1602 6786 
1603 6786 
1604 6786 
1605 6786 
1606 6786 
1607 6786 
1608 6786 
1609 6786 
1610 6786 
1611 6786 
1612 6786 
1613 6786 
1614 6786 
1615 6786 
1616 6786 
1617 6786 
1618 6786 
1619 6786 
1620 6786 
1621 6786 
1622 6786 
1623 6786 
1624 6786 
1625 6786 
1626 6786 
1627 6786 
1628 6786 
1629 6786 
1630 6786 
1631 6786 
1632 6786 
1633 6786 
1634 6786 
1635 6786 
1636 6786 
1637 6786 
1638 6786 
1639 6786 
1640 6786 
1641 6786 
1642 6786 
1643 6786 
1644 6786 
1645 6786 
1646 6786 
1647 6786 
1648 6786 
1649 6786 
1650 6786 
1651 6786 
1652 6786 
1653 6786 
1654 6786 
1655 6786 
1656 6786 
1657 6786 
1658 6786 
1659 6786 
1660 6786 
1661 6786 
1662 6786 
1663 6786 
1664 6786 
1665 6786 
1666 6786 
1667 6786 
1668 6786 
1669 6786 
1670 6786 
1671 6786 
1672 6786 
1673 6786 
1674 6786 
1675 6786 
1676 6786 
1677 6786 
1678 6786 
1679 6786 
1680 6786 
1681 6786 
1682 6786 
1683 6786 
1684 6786 
1685 6786 
1686 6786 
1687 6786 
1688 6786 
1689 6786 
1690 6786 
1691 6786 
1692 6786 
1693 6786 
1694 6786 
1695 6786 
1696 6786 
1697 6786 
1698 6786 
1699 6786 
1700 6786 
1701 6786 
1702 6786 
1703 6786 
1704 6786 
1705 6786 
1706 6786 
1707 6786 
1708 6786 
1709 6786 
1710 6786 
1711 6786 
1712 6786 
1713 6786 
1714 6786 
1715 6786 
1716 6786 
1717 6786 
1718 6786 
1719 6786 
1720 6786 
1721 6786 
1722 6786 
1723 6786 
1724 6786 
1725 6786 
1726 6786 
1727 6786 
1728 6786 
1729 6786 
1730 6786 
1731 6786 
1732 6786 
1733 6786 
1734 6786 
1735 6786 
1736 6786 
1737 6786 
1738 6786 
1739 6786 
1740 6786 
1741 6786 
1742 6786 
1743 6786 
1744 6786 
1745 6786 
1746 6786 
1747 6786 
1748 6786 
1749 6786 
1750 6786 
1751 6786 
1752 6786 
1753 6786 
1754 6786 
1755 6786 
1756 6786 
1757 6786 
1758 6786 
1759 6786 
1760 6786 
1761 6786 
1762 6786 
1763 6786 
1764 6786 
1765 6786 
1766 6786 
1767 6786 
1768 6786 
1769 6786 
1770 6786 
1771 6786 
1772 6786 
1773 6786 
1774 6786 
1775 6786 
1776 6786 
1777 6786 
1778 6786 
1779 6786 
1780 6786 
1781 6786 
1782 6786 
1783 6786 
1784 6786 
1785 6786 
1786 6786 
1787 6786 
1788 6786 
1789 6786 
1790 6786 
1791 6786 
1792 6786 
1793 6786 
1794 6786 
1795 6786 
1796 6786 
1797 6786 
1798 6786 
1799 6786 
1800 6786 
1801 6786 
1802 6786 
1803 6786 
1804 6786 
1805 6786 
1806 6786 
1807 6786 
1808 6786 
1809 6786 
1810 6786 
1811 6786 
1812 6786 
1813 6786 
1814 6786 
1815 6786 
1816 6786 
1817 6786 
1818 6786 
1819 6786 
1820 6786 
1821 6786 
1822 6786 
1823 6786 
1824 6786 
1825 6786 
1826 6786 
1827 6786 
1828 6786 
1829 6786 
1830 6786 
1831 6786 
1832 6786 
1833 6786 
1834 6786 
1835 6786 
1836 6786 
1837 6786 
1838 6786 
1839 6786 
1840 6786 
1841 6786 
1842 6786 
1843 6786 
1844 6786 
1845 6786 
1846 6786 
1847 6786 
1848 6786 
1849 6786 
1850 6786 
1851 6786 
1852 6786 
1853 6786 
1854 6786 
1855 6786 
1856 6786 
1857 6786 
1858 6786 
1859 6786 
1860 6786 
1861 6786 
1862 6786 
1863 6786 
1864 6786 
1865 6786 
1866 6786 
1867 6786 
1868 6786 
1869 6786 
1870 6786 
1871 6786 
1872 6786 
1873 6786 
1874 6786 
1875 6786 
1876 6786 
1877 6786 
1878 6786 
1879 6786 
1880 6786 
1881 6786 
1882 6786 
1883 6786 
1884 6786 
1885 6786 
1886 6786 
1887 6786 
1888 6786 
1889 6786 
1890 6786 
1891 6786 
1892 6786 
1893 6786 
1894 6786 
1895 6786 
1896 6786 
1897 6786 
1898 6786 
1899 6786 
1900 6786 
1901 6786 
1902 6786 
1903 6786 
1904 6786 
1905 6786 
1906 6786 
1907 6786 
1908 6786 
1909 6786 
1910 6786 
1911 6786 
1912 6786 
1913 6786 
1914 6786 
1915 6786 
1916 6786 
1917 6786 
1918 6786 
1919 6786 
1920 6786 
1921 6786 
1922 6786 
1923 6786 
1924 6786 
1925 6786 
1926 6786 
1927 6786 
1928 6786 
1929 6786 
1930 6786 
1931 6786 
1932 6786 
1933 6786 
1934 6786 
1935 6786 
1936 6786 
1937 6786 
1938 6786 
1939 6786 
1940 6786 
1941 6786 
1942 6786 
1943 6786 
1944 6786 
1945 6786 
1946 6786 
1947 6786 
1948 6786 
1949 6786 
1950 6786 
1951 6786 
1952 6786 
1953 6786 
1954 6786 
1955 6786 
1956 6786 
1957 6786 
1958 6786 
1959 6786 
1960 6786 
1961 6786 
1962 6786 
1963 6786 
1964 6786 
1965 6786 
1966 6786 
1967 6786 
1968 6786 
1969 6786 
1970 6786 
1971 6786 
1972 6786 
1973 6786 
1974 6786 
1975 6786 
1976 6786 
1977 6786 
1978 6786 
1979 6786 
1980 6786 
1981 6786 
1982 6786 
1983 6786 
1984 6786 
1985 6786 
1986 6786 
1987 6786 
1988 6786 
1989 6786 
1990 6786 
1991 6786 
1992 6786 
1993 6786 
1994 6786 
1995 6786 
1996 6786 
1997 6786 
1998 6786 
1999 6786 
2000 6786 
2001 6786 
2002 6786 
2003 6786 
2004 6786 
2005 6786 
2006 6786 
2007 6786 
2008 6786 
2009 6786 
2010 6786 
2011 6786 
2012 6786 
2013 6786 
2014 6786 
2015 6786 
2016 6786 
2017 6786 
2018 6786 
2019 6786 
2020 6786 
2021 6786 
2022 6786 
2023 6786 
2024 6786 
2025 6786 
2026 6786 
2027 6786 
2028 6786 
2029 6786 
2030 6786 
2031 6786 
2032 6786 
2033 6786 
2034 6786 
2035 6786 
2036 6786 
2037 6786 
2038 6786 
2039 6786 
2040 6786 
2041 6786 
2042 6786 
2043 6786 
2044 6786 
2045 6786 
2046 6786 
2047 6786 
2048 6786 
2049 6786 
2050 6786 
2051 6786 
2052 6786 
2053 6786 
2054 6786 
2055 6786 
2056 6786 
2057 6786 
2058 6786 
2059 6786 
2060 6786 
2061 6786 
2062 6786 
2063 6786 
2064 6786 
2065 6786 
2066 6786 
2067 6786 
2068 6786 
2069 6786 
2070 6786 
2071 6786 
2072 6786 
2073 6786 
2074 6786 
2075 6786 
2076 6786 
2077 6786 
2078 6786 
2079 6786 
2080 6786 
2081 6786 
2082 6786 
2083 6786 
2084 6786 
2085 6786 
2086 6786 
2087 6786 
2088 6786 
2089 6786 
2090 6786 
2091 6786 
2092 6786 
2093 6786 
2094 6786 
2095 6786 
2096 6786 
2097 6786 
2098 6786 
2099 6786 
2100 6786 
2101 6786 
2102 6786 
2103 6786 
2104 6786 
2105 6786 
2106 6786 
2107 6786 
2108 6786 
2109 6786 
2110 6786 
2111 6786 
2112 6786 
2113 6786 
2114 6786 
2115 6786 
2116 6786 
2117 6786 
2118 6786 
2119 6786 
2120 6786 
2121 6786 
2122 6786 
2123 6786 
2124 6786 
2125 6786 
2126 6786 
2127 6786 
2128 6786 
2129 6786 
2130 6786 
2131 6786 
2132 6786 
2133 6786 
2134 6786 
2135 6786 
2136 6786 
2137 6786 
2138 6786 
2139 6786 
2140 6786 
2141 6786 
2142 6786 
2143 6786 
2144 6786 
2145 6786 
2146 6786 
2147 6786 
2148 6786 
2149 6786 
2150 6786 
2151 6786 
2152 6786 
2153 6786 
2154 6786 
2155 6786 
2156 6786 
2157 6786 
2158 6786 
2159 6786 
2160 6786 
2161 6786 
2162 6786 
2163 6786 
2164 6786 
2165 6786 
2166 6786 
2167 6786 
2168 6786 
2169 6786 
2170 6786 
2171 6786 
2172 6786 
2173 6786 
2174 6786 
2175 6786 
2176 6786 
2177 6786 
2178 6786 
2179 6786 
2180 6786 
2181 6786 
2182 6786 
2183 6786 
2184 6786 
2185 6786 
2186 6786 
2187 6786 
2188 6786 
2189 6786 
2190 6786 
2191 6786 
2192 6786 
2193 6786 
2194 6786 
2195 6786 
2196 6786 
2197 6786 
2198 6786 
2199 6786 
2200 6786 
2201 6786 
2202 6786 
2203 6786 
2204 6786 
2205 6786 
2206 6786 
2207 6786 
2208 6786 
2209 6786 
2210 6786 
2211 6786 
2212 6786 
2213 6786 
2214 6786 
2215 6786 
2216 6786 
2217 6786 
2218 6786 
2219 6786 
2220 6786 
2221 6786 
2222 6786 
2223 6786 
2224 6786 
2225 6786 
2226 6786 
2227 6786 
2228 6786 
2229 6786 
2230 6786 
2231 6786 
2232 6786 
2233 6786 
2234 6786 
2235 6786 
2236 6786 
2237 6786 
2238 6786 
2239 6786 
2240 6786 
2241 6786 
2242 6786 
2243 6786 
2244 6786 
2245 6786 
2246 6786 
2247 6786 
2248 6786 
2249 6786 
2250 6786 
2251 6786 
2252 6786 
2253 6786 
2254 6786 
2255 6786 
2256 6786 
2257 6786 
2258 6786 
2259 6786 
2260 6786 
2261 6786 
2262 6786 
2263 6786 
2264 6786 
2265 6786 
2266 6786 
2267 6786 
2268 6786 
2269 6786 
2270 6786 
2271 6786 
2272 6786 
2273 6786 
2274 6786 
2275 6786 
2276 6786 
2277 6786 
2278 6786 
2279 6786 
2280 6786 
2281 6786 
2282 6786 
2283 6786 
2284 6786 
2285 6786 
2286 6786 
2287 6786 
2288 6786 
2289 6786 
2290 6786 
2291 6786 
2292 6786 
2293 6786 
2294 6786 
2295 6786 
2296 6786 
2297 6786 
2298 6786 
2299 6786 
2300 6786 
2301 6786 
2302 6786 
2303 6786 
2304 6786 
2305 6786 
2306 6786 
2307 6786 
2308 6786 
2309 6786 
2310 6786 
2311 6786 
2312 6786 
2313 6786 
2314 6786 
2315 6786 
2316 6786 
2317 6786 
2318 6786 
2319 6786 
2320 6786 
2321 6786 
2322 6786 
2323 6786 
2324 6786 
2325 6786 
2326 6786 
2327 6786 
2328 6786 
2329 6786 
2330 6786 
2331 6786 
2332 6786 
2333 6786 
2334 6786 
2335 6786 
2336 6786 
2337 6786 
2338 6786 
2339 6786 
2340 6786 
2341 6786 

